c Transalg's AIG encoding
p cnf 434 1673
c input variables 28
c output variables 28
c literals 4984
-29 4 0
29 -4 8 0
-29 -8 0
-30 3 0
30 -3 4 7 8 0
-30 4 -8 0
-30 -7 0
30 -3 -4 7 -8 0
-30 -4 8 0
31 -30 0
-31 29 30 0
31 -29 0
-32 2 0
32 -2 4 6 8 0
-32 4 -8 0
-32 -6 0
32 -2 -4 6 -8 0
-32 -4 8 0
33 3 7 -32 0
-33 32 0
-33 3 -7 0
-33 -3 7 0
33 -3 -7 -32 0
34 -33 0
-34 31 33 0
34 -31 0
-35 1 0
35 -1 4 5 8 0
-35 4 -8 0
-35 -5 0
35 -1 -4 5 -8 0
-35 -4 8 0
36 3 7 -35 0
-36 35 0
-36 3 -7 0
-36 -3 7 0
36 -3 -7 -35 0
37 2 6 -36 0
-37 36 0
-37 2 -6 0
-37 -2 6 0
37 -2 -6 -36 0
38 -37 0
-38 34 37 0
38 -34 0
39 -1 38 0
39 -5 -38 0
-39 1 38 0
-39 5 -38 0
40 -2 38 0
40 -6 -38 0
-40 2 38 0
-40 6 -38 0
41 -3 38 0
41 -7 -38 0
-41 3 38 0
-41 7 -38 0
42 -4 38 0
42 -8 -38 0
-42 4 38 0
-42 8 -38 0
43 -5 38 0
43 -1 -38 0
-43 5 38 0
-43 1 -38 0
44 -6 38 0
44 -2 -38 0
-44 6 38 0
-44 2 -38 0
45 -7 38 0
45 -3 -38 0
-45 7 38 0
-45 3 -38 0
46 -8 38 0
46 -4 -38 0
-46 8 38 0
-46 4 -38 0
47 12 -46 0
-47 46 0
-47 -12 0
-48 45 0
48 11 12 -45 46 0
-48 12 -46 0
48 11 -12 -45 -46 0
-48 -12 46 0
-48 -11 0
49 -48 0
-49 47 48 0
49 -47 0
-50 44 0
50 10 12 -44 46 0
-50 12 -46 0
50 10 -12 -44 -46 0
-50 -12 46 0
-50 -10 0
51 11 45 -50 0
-51 50 0
-51 11 -45 0
-51 -11 45 0
51 -11 -45 -50 0
52 -51 0
-52 49 51 0
52 -49 0
-53 43 0
53 9 12 -43 46 0
-53 12 -46 0
53 9 -12 -43 -46 0
-53 -12 46 0
-53 -9 0
54 11 45 -53 0
-54 53 0
-54 11 -45 0
-54 -11 45 0
54 -11 -45 -53 0
55 10 44 -54 0
-55 54 0
-55 10 -44 0
-55 -10 44 0
55 -10 -44 -54 0
56 -55 0
-56 52 55 0
56 -52 0
57 -43 56 0
57 -9 -56 0
-57 43 56 0
-57 9 -56 0
58 -44 56 0
58 -10 -56 0
-58 44 56 0
-58 10 -56 0
59 -45 56 0
59 -11 -56 0
-59 45 56 0
-59 11 -56 0
60 -46 56 0
60 -12 -56 0
-60 46 56 0
-60 12 -56 0
61 -9 56 0
61 -43 -56 0
-61 9 56 0
-61 43 -56 0
62 -10 56 0
62 -44 -56 0
-62 10 56 0
-62 44 -56 0
63 -11 56 0
63 -45 -56 0
-63 11 56 0
-63 45 -56 0
64 -12 56 0
64 -46 -56 0
-64 12 56 0
-64 46 -56 0
65 16 -64 0
-65 64 0
-65 -16 0
-66 63 0
66 15 16 -63 64 0
-66 16 -64 0
66 15 -16 -63 -64 0
-66 -16 64 0
-66 -15 0
67 -66 0
-67 65 66 0
67 -65 0
-68 62 0
68 14 16 -62 64 0
-68 16 -64 0
68 14 -16 -62 -64 0
-68 -16 64 0
-68 -14 0
69 15 63 -68 0
-69 68 0
-69 15 -63 0
-69 -15 63 0
69 -15 -63 -68 0
70 -69 0
-70 67 69 0
70 -67 0
-71 61 0
71 13 16 -61 64 0
-71 16 -64 0
71 13 -16 -61 -64 0
-71 -16 64 0
-71 -13 0
72 15 63 -71 0
-72 71 0
-72 15 -63 0
-72 -15 63 0
72 -15 -63 -71 0
73 14 62 -72 0
-73 72 0
-73 14 -62 0
-73 -14 62 0
73 -14 -62 -72 0
74 -73 0
-74 70 73 0
74 -70 0
75 -61 74 0
75 -13 -74 0
-75 61 74 0
-75 13 -74 0
76 -62 74 0
76 -14 -74 0
-76 62 74 0
-76 14 -74 0
77 -63 74 0
77 -15 -74 0
-77 63 74 0
-77 15 -74 0
78 -64 74 0
78 -16 -74 0
-78 64 74 0
-78 16 -74 0
79 -13 74 0
79 -61 -74 0
-79 13 74 0
-79 61 -74 0
80 -14 74 0
80 -62 -74 0
-80 14 74 0
-80 62 -74 0
81 -15 74 0
81 -63 -74 0
-81 15 74 0
-81 63 -74 0
82 -16 74 0
82 -64 -74 0
-82 16 74 0
-82 64 -74 0
83 20 -82 0
-83 82 0
-83 -20 0
-84 81 0
84 19 20 -81 82 0
-84 20 -82 0
84 19 -20 -81 -82 0
-84 -20 82 0
-84 -19 0
85 -84 0
-85 83 84 0
85 -83 0
-86 80 0
86 18 20 -80 82 0
-86 20 -82 0
86 18 -20 -80 -82 0
-86 -20 82 0
-86 -18 0
87 19 81 -86 0
-87 86 0
-87 19 -81 0
-87 -19 81 0
87 -19 -81 -86 0
88 -87 0
-88 85 87 0
88 -85 0
-89 79 0
89 17 20 -79 82 0
-89 20 -82 0
89 17 -20 -79 -82 0
-89 -20 82 0
-89 -17 0
90 19 81 -89 0
-90 89 0
-90 19 -81 0
-90 -19 81 0
90 -19 -81 -89 0
91 18 80 -90 0
-91 90 0
-91 18 -80 0
-91 -18 80 0
91 -18 -80 -90 0
92 -91 0
-92 88 91 0
92 -88 0
93 -79 92 0
93 -17 -92 0
-93 79 92 0
-93 17 -92 0
94 -80 92 0
94 -18 -92 0
-94 80 92 0
-94 18 -92 0
95 -81 92 0
95 -19 -92 0
-95 81 92 0
-95 19 -92 0
96 -82 92 0
96 -20 -92 0
-96 82 92 0
-96 20 -92 0
97 -17 92 0
97 -79 -92 0
-97 17 92 0
-97 79 -92 0
98 -18 92 0
98 -80 -92 0
-98 18 92 0
-98 80 -92 0
99 -19 92 0
99 -81 -92 0
-99 19 92 0
-99 81 -92 0
100 -20 92 0
100 -82 -92 0
-100 20 92 0
-100 82 -92 0
101 24 -100 0
-101 100 0
-101 -24 0
-102 99 0
102 23 24 -99 100 0
-102 24 -100 0
102 23 -24 -99 -100 0
-102 -24 100 0
-102 -23 0
103 -102 0
-103 101 102 0
103 -101 0
-104 98 0
104 22 24 -98 100 0
-104 24 -100 0
104 22 -24 -98 -100 0
-104 -24 100 0
-104 -22 0
105 23 99 -104 0
-105 104 0
-105 23 -99 0
-105 -23 99 0
105 -23 -99 -104 0
106 -105 0
-106 103 105 0
106 -103 0
-107 97 0
107 21 24 -97 100 0
-107 24 -100 0
107 21 -24 -97 -100 0
-107 -24 100 0
-107 -21 0
108 23 99 -107 0
-108 107 0
-108 23 -99 0
-108 -23 99 0
108 -23 -99 -107 0
109 22 98 -108 0
-109 108 0
-109 22 -98 0
-109 -22 98 0
109 -22 -98 -108 0
110 -109 0
-110 106 109 0
110 -106 0
111 -97 110 0
111 -21 -110 0
-111 97 110 0
-111 21 -110 0
112 -98 110 0
112 -22 -110 0
-112 98 110 0
-112 22 -110 0
113 -99 110 0
113 -23 -110 0
-113 99 110 0
-113 23 -110 0
114 -100 110 0
114 -24 -110 0
-114 100 110 0
-114 24 -110 0
115 -21 110 0
115 -97 -110 0
-115 21 110 0
-115 97 -110 0
116 -22 110 0
116 -98 -110 0
-116 22 110 0
-116 98 -110 0
117 -23 110 0
117 -99 -110 0
-117 23 110 0
-117 99 -110 0
118 -24 110 0
118 -100 -110 0
-118 24 110 0
-118 100 -110 0
119 28 -118 0
-119 118 0
-119 -28 0
-120 117 0
120 27 28 -117 118 0
-120 28 -118 0
120 27 -28 -117 -118 0
-120 -28 118 0
-120 -27 0
121 -120 0
-121 119 120 0
121 -119 0
-122 116 0
122 26 28 -116 118 0
-122 28 -118 0
122 26 -28 -116 -118 0
-122 -28 118 0
-122 -26 0
123 27 117 -122 0
-123 122 0
-123 27 -117 0
-123 -27 117 0
123 -27 -117 -122 0
124 -123 0
-124 121 123 0
124 -121 0
-125 115 0
125 25 28 -115 118 0
-125 28 -118 0
125 25 -28 -115 -118 0
-125 -28 118 0
-125 -25 0
126 27 117 -125 0
-126 125 0
-126 27 -117 0
-126 -27 117 0
126 -27 -117 -125 0
127 26 116 -126 0
-127 126 0
-127 26 -116 0
-127 -26 116 0
127 -26 -116 -126 0
128 -127 0
-128 124 127 0
128 -124 0
129 -115 128 0
129 -25 -128 0
-129 115 128 0
-129 25 -128 0
130 -116 128 0
130 -26 -128 0
-130 116 128 0
-130 26 -128 0
131 -117 128 0
131 -27 -128 0
-131 117 128 0
-131 27 -128 0
132 -118 128 0
132 -28 -128 0
-132 118 128 0
-132 28 -128 0
133 -25 128 0
133 -115 -128 0
-133 25 128 0
-133 115 -128 0
134 -26 128 0
134 -116 -128 0
-134 26 128 0
-134 116 -128 0
135 -27 128 0
135 -117 -128 0
-135 27 128 0
-135 117 -128 0
136 -28 128 0
136 -118 -128 0
-136 28 128 0
-136 118 -128 0
-137 42 0
137 -42 60 0
-137 -60 0
-138 41 0
138 -41 42 59 60 0
-138 42 -60 0
-138 -59 0
138 -41 -42 59 -60 0
-138 -42 60 0
139 -138 0
-139 137 138 0
139 -137 0
-140 40 0
140 -40 42 58 60 0
-140 42 -60 0
-140 -58 0
140 -40 -42 58 -60 0
-140 -42 60 0
141 41 59 -140 0
-141 140 0
-141 41 -59 0
-141 -41 59 0
141 -41 -59 -140 0
142 -141 0
-142 139 141 0
142 -139 0
-143 39 0
143 -39 42 57 60 0
-143 42 -60 0
-143 -57 0
143 -39 -42 57 -60 0
-143 -42 60 0
144 41 59 -143 0
-144 143 0
-144 41 -59 0
-144 -41 59 0
144 -41 -59 -143 0
145 40 58 -144 0
-145 144 0
-145 40 -58 0
-145 -40 58 0
145 -40 -58 -144 0
146 -145 0
-146 142 145 0
146 -142 0
147 -39 146 0
147 -57 -146 0
-147 39 146 0
-147 57 -146 0
148 -40 146 0
148 -58 -146 0
-148 40 146 0
-148 58 -146 0
149 -41 146 0
149 -59 -146 0
-149 41 146 0
-149 59 -146 0
150 -42 146 0
150 -60 -146 0
-150 42 146 0
-150 60 -146 0
151 -57 146 0
151 -39 -146 0
-151 57 146 0
-151 39 -146 0
152 -58 146 0
152 -40 -146 0
-152 58 146 0
-152 40 -146 0
153 -59 146 0
153 -41 -146 0
-153 59 146 0
-153 41 -146 0
154 -60 146 0
154 -42 -146 0
-154 60 146 0
-154 42 -146 0
155 78 -154 0
-155 154 0
-155 -78 0
-156 153 0
156 77 78 -153 154 0
-156 78 -154 0
156 77 -78 -153 -154 0
-156 -78 154 0
-156 -77 0
157 -156 0
-157 155 156 0
157 -155 0
-158 152 0
158 76 78 -152 154 0
-158 78 -154 0
158 76 -78 -152 -154 0
-158 -78 154 0
-158 -76 0
159 77 153 -158 0
-159 158 0
-159 77 -153 0
-159 -77 153 0
159 -77 -153 -158 0
160 -159 0
-160 157 159 0
160 -157 0
-161 151 0
161 75 78 -151 154 0
-161 78 -154 0
161 75 -78 -151 -154 0
-161 -78 154 0
-161 -75 0
162 77 153 -161 0
-162 161 0
-162 77 -153 0
-162 -77 153 0
162 -77 -153 -161 0
163 76 152 -162 0
-163 162 0
-163 76 -152 0
-163 -76 152 0
163 -76 -152 -162 0
164 -163 0
-164 160 163 0
164 -160 0
165 -151 164 0
165 -75 -164 0
-165 151 164 0
-165 75 -164 0
166 -152 164 0
166 -76 -164 0
-166 152 164 0
-166 76 -164 0
167 -153 164 0
167 -77 -164 0
-167 153 164 0
-167 77 -164 0
168 -154 164 0
168 -78 -164 0
-168 154 164 0
-168 78 -164 0
169 -75 164 0
169 -151 -164 0
-169 75 164 0
-169 151 -164 0
170 -76 164 0
170 -152 -164 0
-170 76 164 0
-170 152 -164 0
171 -77 164 0
171 -153 -164 0
-171 77 164 0
-171 153 -164 0
172 -78 164 0
172 -154 -164 0
-172 78 164 0
-172 154 -164 0
173 96 -172 0
-173 172 0
-173 -96 0
-174 171 0
174 95 96 -171 172 0
-174 96 -172 0
174 95 -96 -171 -172 0
-174 -96 172 0
-174 -95 0
175 -174 0
-175 173 174 0
175 -173 0
-176 170 0
176 94 96 -170 172 0
-176 96 -172 0
176 94 -96 -170 -172 0
-176 -96 172 0
-176 -94 0
177 95 171 -176 0
-177 176 0
-177 95 -171 0
-177 -95 171 0
177 -95 -171 -176 0
178 -177 0
-178 175 177 0
178 -175 0
-179 169 0
179 93 96 -169 172 0
-179 96 -172 0
179 93 -96 -169 -172 0
-179 -96 172 0
-179 -93 0
180 95 171 -179 0
-180 179 0
-180 95 -171 0
-180 -95 171 0
180 -95 -171 -179 0
181 94 170 -180 0
-181 180 0
-181 94 -170 0
-181 -94 170 0
181 -94 -170 -180 0
182 -181 0
-182 178 181 0
182 -178 0
183 -169 182 0
183 -93 -182 0
-183 169 182 0
-183 93 -182 0
184 -170 182 0
184 -94 -182 0
-184 170 182 0
-184 94 -182 0
185 -171 182 0
185 -95 -182 0
-185 171 182 0
-185 95 -182 0
186 -172 182 0
186 -96 -182 0
-186 172 182 0
-186 96 -182 0
187 -93 182 0
187 -169 -182 0
-187 93 182 0
-187 169 -182 0
188 -94 182 0
188 -170 -182 0
-188 94 182 0
-188 170 -182 0
189 -95 182 0
189 -171 -182 0
-189 95 182 0
-189 171 -182 0
190 -96 182 0
190 -172 -182 0
-190 96 182 0
-190 172 -182 0
191 114 -190 0
-191 190 0
-191 -114 0
-192 189 0
192 113 114 -189 190 0
-192 114 -190 0
192 113 -114 -189 -190 0
-192 -114 190 0
-192 -113 0
193 -192 0
-193 191 192 0
193 -191 0
-194 188 0
194 112 114 -188 190 0
-194 114 -190 0
194 112 -114 -188 -190 0
-194 -114 190 0
-194 -112 0
195 113 189 -194 0
-195 194 0
-195 113 -189 0
-195 -113 189 0
195 -113 -189 -194 0
196 -195 0
-196 193 195 0
196 -193 0
-197 187 0
197 111 114 -187 190 0
-197 114 -190 0
197 111 -114 -187 -190 0
-197 -114 190 0
-197 -111 0
198 113 189 -197 0
-198 197 0
-198 113 -189 0
-198 -113 189 0
198 -113 -189 -197 0
199 112 188 -198 0
-199 198 0
-199 112 -188 0
-199 -112 188 0
199 -112 -188 -198 0
200 -199 0
-200 196 199 0
200 -196 0
201 -187 200 0
201 -111 -200 0
-201 187 200 0
-201 111 -200 0
202 -188 200 0
202 -112 -200 0
-202 188 200 0
-202 112 -200 0
203 -189 200 0
203 -113 -200 0
-203 189 200 0
-203 113 -200 0
204 -190 200 0
204 -114 -200 0
-204 190 200 0
-204 114 -200 0
205 -111 200 0
205 -187 -200 0
-205 111 200 0
-205 187 -200 0
206 -112 200 0
206 -188 -200 0
-206 112 200 0
-206 188 -200 0
207 -113 200 0
207 -189 -200 0
-207 113 200 0
-207 189 -200 0
208 -114 200 0
208 -190 -200 0
-208 114 200 0
-208 190 -200 0
209 132 -208 0
-209 208 0
-209 -132 0
-210 207 0
210 131 132 -207 208 0
-210 132 -208 0
210 131 -132 -207 -208 0
-210 -132 208 0
-210 -131 0
211 -210 0
-211 209 210 0
211 -209 0
-212 206 0
212 130 132 -206 208 0
-212 132 -208 0
212 130 -132 -206 -208 0
-212 -132 208 0
-212 -130 0
213 131 207 -212 0
-213 212 0
-213 131 -207 0
-213 -131 207 0
213 -131 -207 -212 0
214 -213 0
-214 211 213 0
214 -211 0
-215 205 0
215 129 132 -205 208 0
-215 132 -208 0
215 129 -132 -205 -208 0
-215 -132 208 0
-215 -129 0
216 131 207 -215 0
-216 215 0
-216 131 -207 0
-216 -131 207 0
216 -131 -207 -215 0
217 130 206 -216 0
-217 216 0
-217 130 -206 0
-217 -130 206 0
217 -130 -206 -216 0
218 -217 0
-218 214 217 0
218 -214 0
219 -205 218 0
219 -129 -218 0
-219 205 218 0
-219 129 -218 0
220 -206 218 0
220 -130 -218 0
-220 206 218 0
-220 130 -218 0
221 -207 218 0
221 -131 -218 0
-221 207 218 0
-221 131 -218 0
222 -208 218 0
222 -132 -218 0
-222 208 218 0
-222 132 -218 0
223 -129 218 0
223 -205 -218 0
-223 129 218 0
-223 205 -218 0
224 -130 218 0
224 -206 -218 0
-224 130 218 0
-224 206 -218 0
225 -131 218 0
225 -207 -218 0
-225 131 218 0
-225 207 -218 0
226 -132 218 0
226 -208 -218 0
-226 132 218 0
-226 208 -218 0
-227 150 0
227 -150 168 0
-227 -168 0
-228 149 0
228 -149 150 167 168 0
-228 150 -168 0
-228 -167 0
228 -149 -150 167 -168 0
-228 -150 168 0
229 -228 0
-229 227 228 0
229 -227 0
-230 148 0
230 -148 150 166 168 0
-230 150 -168 0
-230 -166 0
230 -148 -150 166 -168 0
-230 -150 168 0
231 149 167 -230 0
-231 230 0
-231 149 -167 0
-231 -149 167 0
231 -149 -167 -230 0
232 -231 0
-232 229 231 0
232 -229 0
-233 147 0
233 -147 150 165 168 0
-233 150 -168 0
-233 -165 0
233 -147 -150 165 -168 0
-233 -150 168 0
234 149 167 -233 0
-234 233 0
-234 149 -167 0
-234 -149 167 0
234 -149 -167 -233 0
235 148 166 -234 0
-235 234 0
-235 148 -166 0
-235 -148 166 0
235 -148 -166 -234 0
236 -235 0
-236 232 235 0
236 -232 0
237 -147 236 0
237 -165 -236 0
-237 147 236 0
-237 165 -236 0
238 -148 236 0
238 -166 -236 0
-238 148 236 0
-238 166 -236 0
239 -149 236 0
239 -167 -236 0
-239 149 236 0
-239 167 -236 0
240 -150 236 0
240 -168 -236 0
-240 150 236 0
-240 168 -236 0
241 -165 236 0
241 -147 -236 0
-241 165 236 0
-241 147 -236 0
242 -166 236 0
242 -148 -236 0
-242 166 236 0
-242 148 -236 0
243 -167 236 0
243 -149 -236 0
-243 167 236 0
-243 149 -236 0
244 -168 236 0
244 -150 -236 0
-244 168 236 0
-244 150 -236 0
245 186 -244 0
-245 244 0
-245 -186 0
-246 243 0
246 185 186 -243 244 0
-246 186 -244 0
246 185 -186 -243 -244 0
-246 -186 244 0
-246 -185 0
247 -246 0
-247 245 246 0
247 -245 0
-248 242 0
248 184 186 -242 244 0
-248 186 -244 0
248 184 -186 -242 -244 0
-248 -186 244 0
-248 -184 0
249 185 243 -248 0
-249 248 0
-249 185 -243 0
-249 -185 243 0
249 -185 -243 -248 0
250 -249 0
-250 247 249 0
250 -247 0
-251 241 0
251 183 186 -241 244 0
-251 186 -244 0
251 183 -186 -241 -244 0
-251 -186 244 0
-251 -183 0
252 185 243 -251 0
-252 251 0
-252 185 -243 0
-252 -185 243 0
252 -185 -243 -251 0
253 184 242 -252 0
-253 252 0
-253 184 -242 0
-253 -184 242 0
253 -184 -242 -252 0
254 -253 0
-254 250 253 0
254 -250 0
255 -241 254 0
255 -183 -254 0
-255 241 254 0
-255 183 -254 0
256 -242 254 0
256 -184 -254 0
-256 242 254 0
-256 184 -254 0
257 -243 254 0
257 -185 -254 0
-257 243 254 0
-257 185 -254 0
258 -244 254 0
258 -186 -254 0
-258 244 254 0
-258 186 -254 0
259 -183 254 0
259 -241 -254 0
-259 183 254 0
-259 241 -254 0
260 -184 254 0
260 -242 -254 0
-260 184 254 0
-260 242 -254 0
261 -185 254 0
261 -243 -254 0
-261 185 254 0
-261 243 -254 0
262 -186 254 0
262 -244 -254 0
-262 186 254 0
-262 244 -254 0
263 204 -262 0
-263 262 0
-263 -204 0
-264 261 0
264 203 204 -261 262 0
-264 204 -262 0
264 203 -204 -261 -262 0
-264 -204 262 0
-264 -203 0
265 -264 0
-265 263 264 0
265 -263 0
-266 260 0
266 202 204 -260 262 0
-266 204 -262 0
266 202 -204 -260 -262 0
-266 -204 262 0
-266 -202 0
267 203 261 -266 0
-267 266 0
-267 203 -261 0
-267 -203 261 0
267 -203 -261 -266 0
268 -267 0
-268 265 267 0
268 -265 0
-269 259 0
269 201 204 -259 262 0
-269 204 -262 0
269 201 -204 -259 -262 0
-269 -204 262 0
-269 -201 0
270 203 261 -269 0
-270 269 0
-270 203 -261 0
-270 -203 261 0
270 -203 -261 -269 0
271 202 260 -270 0
-271 270 0
-271 202 -260 0
-271 -202 260 0
271 -202 -260 -270 0
272 -271 0
-272 268 271 0
272 -268 0
273 -259 272 0
273 -201 -272 0
-273 259 272 0
-273 201 -272 0
274 -260 272 0
274 -202 -272 0
-274 260 272 0
-274 202 -272 0
275 -261 272 0
275 -203 -272 0
-275 261 272 0
-275 203 -272 0
276 -262 272 0
276 -204 -272 0
-276 262 272 0
-276 204 -272 0
277 -201 272 0
277 -259 -272 0
-277 201 272 0
-277 259 -272 0
278 -202 272 0
278 -260 -272 0
-278 202 272 0
-278 260 -272 0
279 -203 272 0
279 -261 -272 0
-279 203 272 0
-279 261 -272 0
280 -204 272 0
280 -262 -272 0
-280 204 272 0
-280 262 -272 0
281 222 -280 0
-281 280 0
-281 -222 0
-282 279 0
282 221 222 -279 280 0
-282 222 -280 0
282 221 -222 -279 -280 0
-282 -222 280 0
-282 -221 0
283 -282 0
-283 281 282 0
283 -281 0
-284 278 0
284 220 222 -278 280 0
-284 222 -280 0
284 220 -222 -278 -280 0
-284 -222 280 0
-284 -220 0
285 221 279 -284 0
-285 284 0
-285 221 -279 0
-285 -221 279 0
285 -221 -279 -284 0
286 -285 0
-286 283 285 0
286 -283 0
-287 277 0
287 219 222 -277 280 0
-287 222 -280 0
287 219 -222 -277 -280 0
-287 -222 280 0
-287 -219 0
288 221 279 -287 0
-288 287 0
-288 221 -279 0
-288 -221 279 0
288 -221 -279 -287 0
289 220 278 -288 0
-289 288 0
-289 220 -278 0
-289 -220 278 0
289 -220 -278 -288 0
290 -289 0
-290 286 289 0
290 -286 0
291 -277 290 0
291 -219 -290 0
-291 277 290 0
-291 219 -290 0
292 -278 290 0
292 -220 -290 0
-292 278 290 0
-292 220 -290 0
293 -279 290 0
293 -221 -290 0
-293 279 290 0
-293 221 -290 0
294 -280 290 0
294 -222 -290 0
-294 280 290 0
-294 222 -290 0
295 -219 290 0
295 -277 -290 0
-295 219 290 0
-295 277 -290 0
296 -220 290 0
296 -278 -290 0
-296 220 290 0
-296 278 -290 0
297 -221 290 0
297 -279 -290 0
-297 221 290 0
-297 279 -290 0
298 -222 290 0
298 -280 -290 0
-298 222 290 0
-298 280 -290 0
-299 240 0
299 -240 258 0
-299 -258 0
-300 239 0
300 -239 240 257 258 0
-300 240 -258 0
-300 -257 0
300 -239 -240 257 -258 0
-300 -240 258 0
301 -300 0
-301 299 300 0
301 -299 0
-302 238 0
302 -238 240 256 258 0
-302 240 -258 0
-302 -256 0
302 -238 -240 256 -258 0
-302 -240 258 0
303 239 257 -302 0
-303 302 0
-303 239 -257 0
-303 -239 257 0
303 -239 -257 -302 0
304 -303 0
-304 301 303 0
304 -301 0
-305 237 0
305 -237 240 255 258 0
-305 240 -258 0
-305 -255 0
305 -237 -240 255 -258 0
-305 -240 258 0
306 239 257 -305 0
-306 305 0
-306 239 -257 0
-306 -239 257 0
306 -239 -257 -305 0
307 238 256 -306 0
-307 306 0
-307 238 -256 0
-307 -238 256 0
307 -238 -256 -306 0
308 -307 0
-308 304 307 0
308 -304 0
309 -237 308 0
309 -255 -308 0
-309 237 308 0
-309 255 -308 0
310 -238 308 0
310 -256 -308 0
-310 238 308 0
-310 256 -308 0
311 -239 308 0
311 -257 -308 0
-311 239 308 0
-311 257 -308 0
312 -240 308 0
312 -258 -308 0
-312 240 308 0
-312 258 -308 0
313 -255 308 0
313 -237 -308 0
-313 255 308 0
-313 237 -308 0
314 -256 308 0
314 -238 -308 0
-314 256 308 0
-314 238 -308 0
315 -257 308 0
315 -239 -308 0
-315 257 308 0
-315 239 -308 0
316 -258 308 0
316 -240 -308 0
-316 258 308 0
-316 240 -308 0
317 276 -316 0
-317 316 0
-317 -276 0
-318 315 0
318 275 276 -315 316 0
-318 276 -316 0
318 275 -276 -315 -316 0
-318 -276 316 0
-318 -275 0
319 -318 0
-319 317 318 0
319 -317 0
-320 314 0
320 274 276 -314 316 0
-320 276 -316 0
320 274 -276 -314 -316 0
-320 -276 316 0
-320 -274 0
321 275 315 -320 0
-321 320 0
-321 275 -315 0
-321 -275 315 0
321 -275 -315 -320 0
322 -321 0
-322 319 321 0
322 -319 0
-323 313 0
323 273 276 -313 316 0
-323 276 -316 0
323 273 -276 -313 -316 0
-323 -276 316 0
-323 -273 0
324 275 315 -323 0
-324 323 0
-324 275 -315 0
-324 -275 315 0
324 -275 -315 -323 0
325 274 314 -324 0
-325 324 0
-325 274 -314 0
-325 -274 314 0
325 -274 -314 -324 0
326 -325 0
-326 322 325 0
326 -322 0
327 -313 326 0
327 -273 -326 0
-327 313 326 0
-327 273 -326 0
328 -314 326 0
328 -274 -326 0
-328 314 326 0
-328 274 -326 0
329 -315 326 0
329 -275 -326 0
-329 315 326 0
-329 275 -326 0
330 -316 326 0
330 -276 -326 0
-330 316 326 0
-330 276 -326 0
331 -273 326 0
331 -313 -326 0
-331 273 326 0
-331 313 -326 0
332 -274 326 0
332 -314 -326 0
-332 274 326 0
-332 314 -326 0
333 -275 326 0
333 -315 -326 0
-333 275 326 0
-333 315 -326 0
334 -276 326 0
334 -316 -326 0
-334 276 326 0
-334 316 -326 0
335 294 -334 0
-335 334 0
-335 -294 0
-336 333 0
336 293 294 -333 334 0
-336 294 -334 0
336 293 -294 -333 -334 0
-336 -294 334 0
-336 -293 0
337 -336 0
-337 335 336 0
337 -335 0
-338 332 0
338 292 294 -332 334 0
-338 294 -334 0
338 292 -294 -332 -334 0
-338 -294 334 0
-338 -292 0
339 293 333 -338 0
-339 338 0
-339 293 -333 0
-339 -293 333 0
339 -293 -333 -338 0
340 -339 0
-340 337 339 0
340 -337 0
-341 331 0
341 291 294 -331 334 0
-341 294 -334 0
341 291 -294 -331 -334 0
-341 -294 334 0
-341 -291 0
342 293 333 -341 0
-342 341 0
-342 293 -333 0
-342 -293 333 0
342 -293 -333 -341 0
343 292 332 -342 0
-343 342 0
-343 292 -332 0
-343 -292 332 0
343 -292 -332 -342 0
344 -343 0
-344 340 343 0
344 -340 0
345 -331 344 0
345 -291 -344 0
-345 331 344 0
-345 291 -344 0
346 -332 344 0
346 -292 -344 0
-346 332 344 0
-346 292 -344 0
347 -333 344 0
347 -293 -344 0
-347 333 344 0
-347 293 -344 0
348 -334 344 0
348 -294 -344 0
-348 334 344 0
-348 294 -344 0
349 -291 344 0
349 -331 -344 0
-349 291 344 0
-349 331 -344 0
350 -292 344 0
350 -332 -344 0
-350 292 344 0
-350 332 -344 0
351 -293 344 0
351 -333 -344 0
-351 293 344 0
-351 333 -344 0
352 -294 344 0
352 -334 -344 0
-352 294 344 0
-352 334 -344 0
-353 312 0
353 -312 330 0
-353 -330 0
-354 311 0
354 -311 312 329 330 0
-354 312 -330 0
-354 -329 0
354 -311 -312 329 -330 0
-354 -312 330 0
355 -354 0
-355 353 354 0
355 -353 0
-356 310 0
356 -310 312 328 330 0
-356 312 -330 0
-356 -328 0
356 -310 -312 328 -330 0
-356 -312 330 0
357 311 329 -356 0
-357 356 0
-357 311 -329 0
-357 -311 329 0
357 -311 -329 -356 0
358 -357 0
-358 355 357 0
358 -355 0
-359 309 0
359 -309 312 327 330 0
-359 312 -330 0
-359 -327 0
359 -309 -312 327 -330 0
-359 -312 330 0
360 311 329 -359 0
-360 359 0
-360 311 -329 0
-360 -311 329 0
360 -311 -329 -359 0
361 310 328 -360 0
-361 360 0
-361 310 -328 0
-361 -310 328 0
361 -310 -328 -360 0
362 -361 0
-362 358 361 0
362 -358 0
363 -309 362 0
363 -327 -362 0
-363 309 362 0
-363 327 -362 0
364 -310 362 0
364 -328 -362 0
-364 310 362 0
-364 328 -362 0
365 -311 362 0
365 -329 -362 0
-365 311 362 0
-365 329 -362 0
366 -312 362 0
366 -330 -362 0
-366 312 362 0
-366 330 -362 0
367 -327 362 0
367 -309 -362 0
-367 327 362 0
-367 309 -362 0
368 -328 362 0
368 -310 -362 0
-368 328 362 0
-368 310 -362 0
369 -329 362 0
369 -311 -362 0
-369 329 362 0
-369 311 -362 0
370 -330 362 0
370 -312 -362 0
-370 330 362 0
-370 312 -362 0
371 348 -370 0
-371 370 0
-371 -348 0
-372 369 0
372 347 348 -369 370 0
-372 348 -370 0
372 347 -348 -369 -370 0
-372 -348 370 0
-372 -347 0
373 -372 0
-373 371 372 0
373 -371 0
-374 368 0
374 346 348 -368 370 0
-374 348 -370 0
374 346 -348 -368 -370 0
-374 -348 370 0
-374 -346 0
375 347 369 -374 0
-375 374 0
-375 347 -369 0
-375 -347 369 0
375 -347 -369 -374 0
376 -375 0
-376 373 375 0
376 -373 0
-377 367 0
377 345 348 -367 370 0
-377 348 -370 0
377 345 -348 -367 -370 0
-377 -348 370 0
-377 -345 0
378 347 369 -377 0
-378 377 0
-378 347 -369 0
-378 -347 369 0
378 -347 -369 -377 0
379 346 368 -378 0
-379 378 0
-379 346 -368 0
-379 -346 368 0
379 -346 -368 -378 0
380 -379 0
-380 376 379 0
380 -376 0
381 -367 380 0
381 -345 -380 0
-381 367 380 0
-381 345 -380 0
382 -368 380 0
382 -346 -380 0
-382 368 380 0
-382 346 -380 0
383 -369 380 0
383 -347 -380 0
-383 369 380 0
-383 347 -380 0
384 -370 380 0
384 -348 -380 0
-384 370 380 0
-384 348 -380 0
385 -345 380 0
385 -367 -380 0
-385 345 380 0
-385 367 -380 0
386 -346 380 0
386 -368 -380 0
-386 346 380 0
-386 368 -380 0
387 -347 380 0
387 -369 -380 0
-387 347 380 0
-387 369 -380 0
388 -348 380 0
388 -370 -380 0
-388 348 380 0
-388 370 -380 0
-389 366 0
389 -366 384 0
-389 -384 0
-390 365 0
390 -365 366 383 384 0
-390 366 -384 0
-390 -383 0
390 -365 -366 383 -384 0
-390 -366 384 0
391 -390 0
-391 389 390 0
391 -389 0
-392 364 0
392 -364 366 382 384 0
-392 366 -384 0
-392 -382 0
392 -364 -366 382 -384 0
-392 -366 384 0
393 365 383 -392 0
-393 392 0
-393 365 -383 0
-393 -365 383 0
393 -365 -383 -392 0
394 -393 0
-394 391 393 0
394 -391 0
-395 363 0
395 -363 366 381 384 0
-395 366 -384 0
-395 -381 0
395 -363 -366 381 -384 0
-395 -366 384 0
396 365 383 -395 0
-396 395 0
-396 365 -383 0
-396 -365 383 0
396 -365 -383 -395 0
397 364 382 -396 0
-397 396 0
-397 364 -382 0
-397 -364 382 0
397 -364 -382 -396 0
398 -397 0
-398 394 397 0
398 -394 0
399 -363 398 0
399 -381 -398 0
-399 363 398 0
-399 381 -398 0
400 -364 398 0
400 -382 -398 0
-400 364 398 0
-400 382 -398 0
401 -365 398 0
401 -383 -398 0
-401 365 398 0
-401 383 -398 0
402 -366 398 0
402 -384 -398 0
-402 366 398 0
-402 384 -398 0
403 -381 398 0
403 -363 -398 0
-403 381 398 0
-403 363 -398 0
404 -382 398 0
404 -364 -398 0
-404 382 398 0
-404 364 -398 0
405 -383 398 0
405 -365 -398 0
-405 383 398 0
-405 365 -398 0
406 -384 398 0
406 -366 -398 0
-406 384 398 0
-406 366 -398 0
-407 399 0
407 -399 0
-408 400 0
408 -400 0
-409 401 0
409 -401 0
-410 402 0
410 -402 0
-411 403 0
411 -403 0
-412 404 0
412 -404 0
-413 405 0
413 -405 0
-414 406 0
414 -406 0
-415 385 0
415 -385 0
-416 386 0
416 -386 0
-417 387 0
417 -387 0
-418 388 0
418 -388 0
-419 349 0
419 -349 0
-420 350 0
420 -350 0
-421 351 0
421 -351 0
-422 352 0
422 -352 0
-423 295 0
423 -295 0
-424 296 0
424 -296 0
-425 297 0
425 -297 0
-426 298 0
426 -298 0
-427 223 0
427 -223 0
-428 224 0
428 -224 0
-429 225 0
429 -225 0
-430 226 0
430 -226 0
-431 133 0
431 -133 0
-432 134 0
432 -134 0
-433 135 0
433 -135 0
-434 136 0
434 -136 0
